Instance: E045-04f.dat
Class:  4
   44 --- number of customers (no depot)
   10 --- number of vehicles
  112 --- number of items
Capacity - height - width of vehicles
  2010     40     20
Node - x - y - demand
    0     0.0     0.0     0.0
    1     3.0     5.0    33.0
    2     2.5     9.0    15.0
    3    48.0    16.0    10.0
    4    48.0    17.0    40.0
    5    69.0    16.0    15.0
    6    70.0    16.0     5.0
    7    64.0    13.0    77.0
    8     3.0   -22.0   435.0
    9     2.5     1.0   165.0
   10   -13.0    11.5   120.0
   11   -20.0    45.0    65.0
   12    -9.0    52.0    23.0
   13    -8.5    53.0    18.0
   14    -8.0    52.0   550.0
   15     2.0     2.0    78.0
   16    -2.0     9.0   627.0
   17   -10.0    20.0     9.0
   18   -20.0    19.0    96.0
   19   -15.0   -21.0   116.0
   20    -5.0    -9.0   116.0
   21    -4.5    -9.0    83.0
   22   -52.0   -36.0    41.0
   23   -53.0   -36.0   645.0
   24     0.0     0.0   694.0
   25   -30.0   -18.0   573.0
   26   -51.0   -35.0     1.0
   27    81.0     9.0   181.0
   28    84.0   -99.0   106.0
   29    82.0    -6.0    52.0
   30    40.0   -12.0   117.0
   31    50.0    -7.0    52.0
   32    51.0    -8.0  1300.0
   33    63.0   -17.0    57.0
   34    45.0    -1.0    28.0
   35    54.0     8.5    84.0
   36    29.0     4.0     1.0
   37    21.0     3.0    54.0
   38    22.0     2.0    19.0
   39    39.0    -3.0    88.0
   40    39.5    -3.0    41.0
   41    40.0   -11.0   238.0
   42    28.0    -2.0    66.0
   43    24.0   -18.0    44.0
   44    24.0   -19.0    42.0
Node - number of items - h - w for each item
    0   0
    1   3   18    3   15    3   11    2
    2   2    4    8   29    2
    3   2    5    7   22    3
    4   1   31    3
    5   1    7    8
    6   4   12    6   15    5   30    4    6    4
    7   3    4    8   24    4   24    2
    8   1   20    3
    9   4    8    8    7    6    6    5   16    4
   10   3    7   11    4   10    4    6
   11   3    6   13    8    5   32    3
   12   4    8   12   19    3   13    3   29    2
   13   3   15    5    4    5   30    3
   14   2    5   14   22    4
   15   1   10    5
   16   4    4    6    5    4   14    3   19    2
   17   2    7   13    7    5
   18   2   15    4   14    3
   19   3    4    7    7    5   19    2
   20   4   13    6    9    4   13    3    7    2
   21   4    5   14    7    8    5    7   26    3
   22   2    5    9   15    7
   23   1    6   11
   24   4    7   11    7    6   15    3   15    3
   25   2    5   13   16    3
   26   3    5    9    5    5   24    2
   27   2    6    9    5    6
   28   1    8   10
   29   3    8   11   20    4   30    3
   30   3    6    8   29    4    7    3
   31   3    5    6    8    4   26    3
   32   2    8    8    9    4
   33   4    7    5   14    3   12    3   31    2
   34   2    6   14   14    4
   35   4    7    7    7    6   24    4   19    3
   36   3    6   11   14    6    7    2
   37   2    6    8    7    7
   38   2    5    4    8    3
   39   2   12    6   30    2
   40   3    6    8   32    3   17    3
   41   2    5   14   18    2
   42   1    7    5
   43   4   31    4    5    4   31    2   21    2
   44   1    7    9
